jobs  (incl. supersource/sink ):	52
RESOURCES
- renewable                 : 4 R
- nonrenewable              : 2 N
- doubly constrained        : 0 D
************************************************************************
PRECEDENCE RELATIONS:
jobnr.    #modes  #successors   successors
1	1	14		2 3 4 5 6 8 9 10 11 12 13 16 19 27 
2	6	7		48 47 42 25 20 17 7 
3	6	6		51 42 22 20 14 7 
4	6	12		51 48 47 46 45 41 36 35 28 24 20 15 
5	6	15		50 49 47 44 43 42 39 36 35 34 33 29 28 24 18 
6	6	17		51 50 47 46 44 43 42 40 39 37 36 34 33 30 29 28 26 
7	6	12		50 49 44 38 37 36 34 33 28 26 21 18 
8	6	13		48 47 46 44 43 42 41 40 39 35 25 24 23 
9	6	10		51 49 43 39 34 33 28 25 24 18 
10	6	12		51 45 43 41 38 37 36 35 31 30 28 20 
11	6	12		47 44 42 41 40 39 37 36 35 33 30 29 
12	6	11		50 42 38 37 36 35 34 33 31 30 28 
13	6	11		48 46 45 44 40 39 34 33 32 31 30 
14	6	10		48 43 38 37 36 35 34 33 30 28 
15	6	7		44 42 38 37 34 32 31 
16	6	7		42 41 37 36 35 33 30 
17	6	6		43 40 34 31 30 28 
18	6	5		45 41 32 31 30 
19	6	5		43 39 33 31 30 
20	6	4		40 39 34 33 
21	6	4		46 40 39 30 
22	6	4		49 35 33 30 
23	6	4		36 34 31 30 
24	6	3		38 37 30 
25	6	3		36 32 30 
26	6	2		35 31 
27	6	2		35 30 
28	6	1		32 
29	6	1		38 
30	6	1		52 
31	6	1		52 
32	6	1		52 
33	6	1		52 
34	6	1		52 
35	6	1		52 
36	6	1		52 
37	6	1		52 
38	6	1		52 
39	6	1		52 
40	6	1		52 
41	6	1		52 
42	6	1		52 
43	6	1		52 
44	6	1		52 
45	6	1		52 
46	6	1		52 
47	6	1		52 
48	6	1		52 
49	6	1		52 
50	6	1		52 
51	6	1		52 
52	1	0		
************************************************************************
REQUESTS/DURATIONS
jobnr.	mode	dur	R1	R2	R3	R4	N1	N2	
------------------------------------------------------------------------
1	1	0	0	0	0	0	0	0	
2	1	4	4	2	4	4	24	23	
	2	14	4	2	3	3	21	21	
	3	15	4	2	3	3	17	20	
	4	20	3	2	3	3	17	18	
	5	27	3	2	1	2	13	18	
	6	30	2	2	1	2	11	15	
3	1	1	4	5	3	5	14	17	
	2	8	3	3	3	4	12	17	
	3	11	3	3	2	3	12	17	
	4	17	2	3	2	3	10	17	
	5	20	2	2	1	3	7	17	
	6	28	1	1	1	2	6	17	
4	1	3	4	4	5	4	27	10	
	2	6	3	4	4	4	25	9	
	3	16	3	3	4	4	19	9	
	4	22	3	2	4	4	18	9	
	5	23	3	2	3	4	16	9	
	6	28	3	1	3	4	13	9	
5	1	6	4	1	4	2	18	8	
	2	8	3	1	3	1	14	7	
	3	16	3	1	3	1	10	7	
	4	17	2	1	2	1	8	5	
	5	18	2	1	2	1	7	5	
	6	25	1	1	2	1	3	3	
6	1	9	4	4	3	5	21	11	
	2	11	4	4	3	4	17	8	
	3	15	4	4	3	4	12	8	
	4	18	3	4	2	4	9	5	
	5	22	3	4	2	3	7	4	
	6	24	3	4	2	3	6	4	
7	1	8	3	4	5	3	27	22	
	2	11	3	3	4	2	20	18	
	3	12	3	3	4	2	17	15	
	4	13	2	2	3	2	15	14	
	5	14	1	2	3	2	9	8	
	6	27	1	2	2	2	8	7	
8	1	3	5	2	2	4	24	27	
	2	9	5	2	2	3	23	27	
	3	14	5	2	2	3	18	27	
	4	17	5	2	2	3	14	27	
	5	26	5	2	1	2	13	27	
	6	30	5	2	1	2	11	27	
9	1	9	3	3	4	4	5	23	
	2	21	3	3	4	3	5	21	
	3	24	3	3	4	2	5	17	
	4	26	3	3	4	2	4	15	
	5	28	2	3	4	2	4	13	
	6	29	2	3	4	1	4	10	
10	1	5	3	4	2	1	22	8	
	2	10	3	4	1	1	21	7	
	3	19	3	4	1	1	21	6	
	4	22	3	4	1	1	20	7	
	5	23	3	4	1	1	20	6	
	6	29	3	4	1	1	19	5	
11	1	6	4	5	3	3	24	23	
	2	7	3	4	3	3	20	23	
	3	8	3	4	3	3	19	23	
	4	15	3	3	3	2	18	23	
	5	16	2	3	3	1	15	22	
	6	23	2	2	3	1	15	22	
12	1	3	5	2	1	4	22	21	
	2	5	3	1	1	4	19	21	
	3	10	3	1	1	4	18	20	
	4	15	2	1	1	4	17	20	
	5	24	1	1	1	4	14	18	
	6	30	1	1	1	4	13	18	
13	1	2	4	3	1	4	24	18	
	2	4	4	3	1	4	23	15	
	3	5	4	3	1	3	23	14	
	4	7	4	3	1	3	23	12	
	5	8	4	3	1	2	22	9	
	6	24	4	3	1	2	22	8	
14	1	8	3	5	3	5	21	28	
	2	24	2	4	3	4	20	26	
	3	25	2	4	2	3	19	23	
	4	26	1	4	2	2	14	23	
	5	27	1	4	1	1	14	20	
	6	28	1	4	1	1	9	20	
15	1	8	4	1	3	5	7	18	
	2	11	3	1	3	4	7	15	
	3	13	3	1	3	4	6	13	
	4	15	3	1	3	4	4	12	
	5	20	2	1	3	3	3	9	
	6	22	2	1	3	3	3	7	
16	1	12	3	4	3	2	19	18	
	2	17	3	4	3	1	18	16	
	3	21	3	3	3	1	17	14	
	4	22	2	3	2	1	17	14	
	5	23	2	3	2	1	17	11	
	6	25	2	2	1	1	16	10	
17	1	11	4	3	3	5	23	27	
	2	18	4	3	3	4	17	19	
	3	19	4	3	2	4	17	19	
	4	20	4	3	2	3	12	15	
	5	24	3	3	1	3	9	7	
	6	27	3	3	1	2	7	3	
18	1	14	3	3	5	4	22	28	
	2	16	2	3	3	4	18	22	
	3	21	2	3	3	4	15	18	
	4	26	1	3	2	4	13	17	
	5	27	1	3	1	4	8	10	
	6	30	1	3	1	4	7	6	
19	1	3	4	2	4	3	29	20	
	2	7	4	2	3	3	29	20	
	3	22	4	2	3	3	28	19	
	4	23	4	2	3	2	26	17	
	5	24	3	2	3	1	25	17	
	6	27	3	2	3	1	25	16	
20	1	6	5	5	1	3	28	18	
	2	15	5	4	1	3	27	14	
	3	16	5	3	1	2	27	14	
	4	21	5	3	1	2	27	10	
	5	25	5	2	1	1	25	6	
	6	27	5	2	1	1	25	5	
21	1	19	5	5	5	5	6	13	
	2	22	4	4	5	4	5	12	
	3	23	3	4	5	4	5	11	
	4	24	3	4	5	4	4	11	
	5	25	3	4	5	4	2	11	
	6	29	2	4	5	4	1	10	
22	1	1	5	3	4	1	19	3	
	2	8	3	2	4	1	19	2	
	3	18	3	2	3	1	19	2	
	4	19	3	1	3	1	19	1	
	5	23	1	1	2	1	19	2	
	6	27	1	1	2	1	19	1	
23	1	4	3	4	2	4	25	20	
	2	13	2	4	2	4	20	17	
	3	15	2	4	2	4	17	14	
	4	16	2	3	2	4	16	13	
	5	22	1	3	2	4	13	9	
	6	27	1	2	2	4	9	6	
24	1	5	3	2	4	3	8	12	
	2	6	3	2	3	3	7	10	
	3	11	3	2	3	3	6	9	
	4	13	3	2	2	3	6	8	
	5	14	3	2	2	3	5	7	
	6	19	3	2	2	3	4	6	
25	1	1	3	3	3	5	30	23	
	2	2	3	3	3	5	27	20	
	3	9	3	3	3	5	23	16	
	4	19	3	2	3	5	21	9	
	5	22	3	1	3	5	19	9	
	6	23	3	1	3	5	17	2	
26	1	13	2	3	1	1	15	21	
	2	14	2	3	1	1	14	21	
	3	20	2	3	1	1	12	21	
	4	22	2	2	1	1	12	21	
	5	23	1	2	1	1	11	21	
	6	28	1	2	1	1	9	21	
27	1	6	3	3	4	2	19	14	
	2	8	3	3	4	1	18	11	
	3	13	3	2	4	1	12	10	
	4	17	2	2	3	1	12	10	
	5	22	1	1	3	1	8	7	
	6	27	1	1	2	1	5	6	
28	1	12	5	1	4	3	13	27	
	2	21	5	1	3	3	12	23	
	3	23	5	1	2	3	11	15	
	4	24	5	1	2	3	11	14	
	5	26	5	1	2	3	11	8	
	6	30	5	1	1	3	10	5	
29	1	1	4	5	2	4	20	15	
	2	3	4	4	2	3	17	13	
	3	13	3	4	2	2	15	11	
	4	14	3	3	1	2	12	9	
	5	15	3	3	1	2	10	6	
	6	28	2	3	1	1	6	3	
30	1	2	4	3	4	2	21	19	
	2	6	3	2	4	1	15	16	
	3	12	3	2	3	1	13	14	
	4	19	2	2	3	1	11	13	
	5	20	1	1	3	1	7	9	
	6	21	1	1	2	1	4	7	
31	1	1	2	1	4	3	23	28	
	2	9	2	1	3	3	22	25	
	3	15	2	1	3	3	21	25	
	4	18	2	1	2	2	20	22	
	5	20	2	1	1	2	19	22	
	6	25	2	1	1	2	18	21	
32	1	6	2	3	4	2	19	27	
	2	10	2	2	3	2	16	22	
	3	13	2	2	3	2	12	18	
	4	18	2	2	2	2	9	15	
	5	24	2	2	2	1	9	11	
	6	26	2	2	1	1	4	7	
33	1	5	2	1	4	2	15	14	
	2	7	2	1	4	2	13	12	
	3	14	2	1	4	2	13	10	
	4	17	2	1	4	1	11	10	
	5	21	2	1	4	1	11	8	
	6	27	2	1	4	1	10	6	
34	1	2	5	5	2	4	25	1	
	2	5	5	4	2	3	24	1	
	3	17	5	4	2	3	23	1	
	4	18	5	4	2	2	23	1	
	5	19	5	4	2	1	21	2	
	6	28	5	4	2	1	21	1	
35	1	15	5	5	4	3	12	22	
	2	17	4	4	3	3	11	20	
	3	21	4	4	2	3	9	13	
	4	22	4	4	2	2	7	13	
	5	25	4	4	1	1	5	6	
	6	27	4	4	1	1	5	5	
36	1	3	2	4	4	3	13	10	
	2	9	2	4	3	3	12	10	
	3	10	2	4	2	3	10	9	
	4	18	1	4	2	3	8	9	
	5	27	1	3	1	3	7	7	
	6	29	1	3	1	3	5	7	
37	1	16	5	1	5	1	16	21	
	2	17	4	1	4	1	14	19	
	3	18	4	1	4	1	13	16	
	4	23	3	1	3	1	13	16	
	5	26	3	1	3	1	12	13	
	6	29	3	1	3	1	11	11	
38	1	1	3	3	3	4	14	11	
	2	3	3	3	3	3	14	9	
	3	5	3	3	2	3	12	9	
	4	6	3	2	2	2	11	8	
	5	11	3	2	1	2	11	7	
	6	27	3	2	1	2	10	6	
39	1	10	4	4	4	3	18	17	
	2	20	3	4	4	2	18	15	
	3	21	3	4	4	2	18	13	
	4	22	3	4	4	2	18	12	
	5	23	3	3	4	1	18	9	
	6	30	3	3	4	1	18	8	
40	1	10	2	4	4	4	20	29	
	2	12	1	4	3	3	19	21	
	3	15	1	4	3	3	16	17	
	4	16	1	4	2	2	14	13	
	5	20	1	4	2	2	12	5	
	6	22	1	4	2	1	11	3	
41	1	9	5	5	4	2	16	9	
	2	10	4	4	3	1	15	9	
	3	12	4	3	3	1	14	8	
	4	20	3	3	2	1	11	7	
	5	23	3	3	2	1	11	5	
	6	29	3	2	2	1	8	5	
42	1	7	1	4	5	4	22	15	
	2	8	1	3	4	4	19	14	
	3	12	1	3	4	4	14	13	
	4	14	1	3	3	4	12	10	
	5	18	1	3	3	4	11	9	
	6	19	1	3	3	4	7	7	
43	1	2	3	4	4	1	23	20	
	2	4	2	3	4	1	22	20	
	3	12	2	3	4	1	20	18	
	4	17	1	3	4	1	15	14	
	5	20	1	3	4	1	14	12	
	6	29	1	3	4	1	10	12	
44	1	3	3	4	1	2	27	24	
	2	7	3	4	1	2	25	19	
	3	18	3	4	1	2	21	18	
	4	20	3	4	1	2	17	15	
	5	23	3	4	1	2	17	11	
	6	28	3	4	1	2	14	6	
45	1	1	5	1	4	3	20	20	
	2	4	3	1	3	3	17	18	
	3	5	3	1	3	3	17	15	
	4	8	3	1	2	3	15	14	
	5	13	1	1	2	2	14	13	
	6	16	1	1	2	2	13	11	
46	1	5	2	1	2	3	23	12	
	2	13	2	1	1	3	20	10	
	3	14	2	1	1	3	19	10	
	4	15	2	1	1	2	18	8	
	5	16	2	1	1	2	17	8	
	6	20	2	1	1	2	14	7	
47	1	5	4	2	1	4	12	25	
	2	6	3	2	1	3	10	25	
	3	7	2	2	1	3	10	21	
	4	19	2	2	1	3	9	16	
	5	22	2	2	1	3	8	11	
	6	26	1	2	1	3	7	6	
48	1	3	5	4	4	5	20	9	
	2	4	5	4	4	4	16	9	
	3	20	5	4	4	4	12	8	
	4	22	5	4	3	4	8	8	
	5	24	5	4	2	3	6	7	
	6	29	5	4	2	3	4	7	
49	1	11	1	4	3	4	20	16	
	2	14	1	4	3	4	19	15	
	3	17	1	3	3	4	18	15	
	4	18	1	3	3	4	18	14	
	5	19	1	1	3	4	17	15	
	6	25	1	1	3	4	17	14	
50	1	13	3	3	5	4	16	29	
	2	18	3	3	4	4	12	26	
	3	23	3	2	4	4	12	26	
	4	24	2	2	3	3	8	23	
	5	26	1	1	2	3	7	23	
	6	27	1	1	2	3	4	21	
51	1	11	4	4	3	4	13	27	
	2	12	4	4	2	3	13	21	
	3	13	4	4	2	3	10	20	
	4	20	3	3	1	3	6	16	
	5	26	2	3	1	3	4	13	
	6	28	2	3	1	3	3	6	
52	1	0	0	0	0	0	0	0	
************************************************************************

 RESOURCE AVAILABILITIES 
	R 1	R 2	R 3	R 4	N 1	N 2
	31	26	27	26	631	573

************************************************************************
